p cnf 33 105
1 2 3 0
21 22 23 24 0
-1 -4 0
-1 -9 0
-1 -13 0
-1 -17 0
-1 -25 0
-1 -28 0
-1 -32 0
-4 -9 0
-4 -13 0
-4 -17 0
-4 -25 0
-4 -28 0
-4 -32 0
-9 -13 0
-9 -17 0
-9 -25 0
-9 -28 0
-9 -32 0
-13 -17 0
-13 -25 0
-13 -28 0
-13 -32 0
-17 -25 0
-17 -28 0
-17 -32 0
-25 -28 0
-25 -32 0
-28 -32 0
-2 -10 0
-2 -14 0
-2 -18 0
-2 -21 0
-2 -29 0
-2 -33 0
-10 -14 0
-10 -18 0
-10 -21 0
-10 -29 0
-10 -33 0
-14 -18 0
-14 -21 0
-14 -29 0
-14 -33 0
-18 -21 0
-18 -29 0
-18 -33 0
-21 -29 0
-21 -33 0
-29 -33 0
-6 -15 0
-6 -22 0
-15 -22 0
-3 -5 0
-3 -7 0
-3 -11 0
-3 -16 0
-3 -19 0
-3 -23 0
-3 -26 0
-3 -30 0
-5 -7 0
-5 -11 0
-5 -16 0
-5 -19 0
-5 -23 0
-5 -26 0
-5 -30 0
-7 -11 0
-7 -16 0
-7 -19 0
-7 -23 0
-7 -26 0
-7 -30 0
-11 -16 0
-11 -19 0
-11 -23 0
-11 -26 0
-11 -30 0
-16 -19 0
-16 -23 0
-16 -26 0
-16 -30 0
-19 -23 0
-19 -26 0
-19 -30 0
-23 -26 0
-23 -30 0
-26 -30 0
-8 -12 0
-8 -20 0
-8 -24 0
-8 -27 0
-8 -31 0
-12 -20 0
-12 -24 0
-12 -27 0
-12 -31 0
-20 -24 0
-20 -27 0
-20 -31 0
-24 -27 0
-24 -31 0
-27 -31 0
